data/solutions/planning/wellformed/moderate/weighting/wellformed_moderate_instance40_gurobi.sol
Elapsed time: 0.21
Nodes explored: 1264
Nodes left: 47
Relative gap: 0.0
Upper bound: 73133.0
Lower bound: 73133
C[0]=4876.0
C[1]=4875.0
C[2]=4875.0
C[3]=4875.0
y[0]=1
y[1]=1
y[2]=3
y[3]=3
y[4]=0
y[5]=0
y[6]=3
y[7]=2
y[8]=0
y[9]=2
y[10]=1
y[11]=1
y[12]=3
y[13]=1
y[14]=0
y[15]=3
y[16]=1
y[17]=1
y[18]=0
y[19]=3
y[20]=2
y[21]=2
y[22]=2
y[23]=2
y[24]=3
y[25]=1
y[26]=0
y[27]=1
y[28]=2
y[29]=3
y[30]=1
y[31]=1
y[32]=0
y[33]=0
y[34]=0
y[35]=1
y[36]=1
y[37]=3
y[38]=2
y[39]=0
